p edge 20 85 10
v 1 5
v 1 11
v 1 12
v 2 9 16
v 4 3 4 14 15
v 2 8 17
v 2 18 19
v 2 2 13
v 2 1 7
v 3 6 10 20
e 1 6
e 1 8
e 1 9
e 1 10
e 1 12
e 1 14
e 1 16
e 1 19
e 2 3
e 2 4
e 2 5
e 2 8
e 2 9
e 2 10
e 2 13
e 2 16
e 2 19
e 3 4
e 3 5
e 3 6
e 3 7
e 3 12
e 3 13
e 3 14
e 3 15
e 3 18
e 3 19
e 3 20
e 4 5
e 4 6
e 4 8
e 5 6
e 5 7
e 5 9
e 5 13
e 5 14
e 5 16
e 5 19
e 6 11
e 6 13
e 6 15
e 6 16
e 6 20
e 7 10
e 7 15
e 7 16
e 7 17
e 7 18
e 7 19
e 7 20
e 8 9
e 8 12
e 8 13
e 8 14
e 8 16
e 8 20
e 9 12
e 9 13
e 9 16
e 10 11
e 10 12
e 10 14
e 10 15
e 10 16
e 10 19
e 11 12
e 11 14
e 11 15
e 11 18
e 11 19
e 11 20
e 12 13
e 12 14
e 12 19
e 13 18
e 13 20
e 14 18
e 14 19
e 15 17
e 15 19
e 15 20
e 16 18
e 17 18
e 18 19
e 19 20
